(set-logic ALL)
(declare-const BAV1 Bool)
(declare-const GEN2 Int)
(declare-const GEN1 Int)
(declare-datatypes () ((Enum (cons (val Int)) (On_Ground) (None))))
(declare-fun cons (Int Int) Int)
(declare-fun cons (Enum) Bool)
(declare-fun cons (Bool) Int)
(assert (cons (cons GEN1)))
(assert (= (cons (cons true) (cons false)) GEN2))
(assert (= BAV1 (= (cons (cons true) (cons false)) GEN2)))
(check-sat)
(get-model)